param n := 120;
param c := 10000
param : V : p w :=
   0	  19	 432
   1	  29	 265
   2	  70	 303
   3	  97	 365
   4	   4	 282
   5	  78	 353
   6	  48	 448
   7	  23	 260
   8	   5	 292
   9	  90	 496
  10	  16	 250
  11	  45	 254
  12	  32	 363
  13	  61	 265
  14	  50	 372
  15	   7	 372
  16	  28	 298
  17	  59	 330
  18	  64	 491
  19	  60	 253
  20	  78	 256
  21	  12	 429
  22	  25	 260
  23	  94	 311
  24	  95	 392
  25	  97	 268
  26	  81	 340
  27	  99	 433
  28	  42	 251
  29	  85	 316
  30	  91	 406
  31	  17	 259
  32	  37	 335
  33	  26	 365
  34	  67	 252
  35	  18	 383
  36	  34	 393
  37	  38	 271
  38	  59	 336
  39	  39	 380
  40	  11	 303
  41	  84	 317
  42	  69	 381
  43	  30	 295
  44	  27	 324
  45	  80	 424
  46	  50	 268
  47	  38	 308
  48	  47	 498
  49	  78	 250
  50	  88	 252
  51	  40	 414
  52	  46	 255
  53	  85	 331
  54	  35	 421
  55	  30	 268
  56	  87	 311
  57	  98	 491
  58	   4	 250
  59	  97	 259
  60	  28	 493
  61	  46	 250
  62	  22	 257
  63	  37	 368
  64	  22	 265
  65	  34	 367
  66	  67	 408
  67	   2	 289
  68	  17	 303
  69	  30	 444
  70	   8	 262
  71	  12	 294
  72	  62	 403
  73	  79	 259
  74	  91	 338
  75	   5	 485
  76	   2	 253
  77	  92	 262
  78	  30	 465
  79	  91	 260
  80	  30	 275
  81	  62	 421
  82	   1	 254
  83	  80	 325
  84	  74	 351
  85	  83	 296
  86	  32	 353
  87	  48	 396
  88	  79	 276
  89	  11	 328
  90	  80	 389
  91	  47	 295
  92	  83	 316
  93	  20	 483
  94	  29	 251
  95	  20	 266
  96	 100	 398
  97	  68	 289
  98	  48	 313
  99	   8	 363
 100	  69	 308
 101	  96	 329
 102	  15	 399
 103	   4	 279
 104	   3	 322
 105	  20	 389
 106	  47	 283
 107	  25	 328
 108	  90	 402
 109	   5	 251
 110	  81	 347
 111	   5	 357
 112	  93	 280
 113	  22	 363
 114	  30	 427
 115	  50	 277
 116	  75	 296
 117	  13	 375
 118	  63	 259
 119	  58	 366
;

set E :=
   0	   4
   0	   8
   0	  11
   0	  19
   0	  21
   0	  23
   0	  24
   0	  31
   0	  37
   0	  40
   0	  47
   0	  59
   0	  63
   0	  67
   0	  71
   0	  79
   0	  80
   0	  81
   0	  85
   0	  87
   0	  88
   0	  90
   0	  93
   0	  94
   0	  96
   0	 103
   0	 110
   0	 111
   0	 114
   0	 115
   1	   4
   1	   7
   1	  10
   1	  14
   1	  18
   1	  19
   1	  21
   1	  22
   1	  24
   1	  25
   1	  28
   1	  29
   1	  31
   1	  32
   1	  39
   1	  44
   1	  47
   1	  53
   1	  54
   1	  56
   1	  58
   1	  59
   1	  60
   1	  61
   1	  63
   1	  75
   1	  81
   1	  82
   1	  84
   1	  87
   1	  89
   1	  92
   1	 101
   1	 102
   1	 110
   1	 116
   2	   4
   2	  11
   2	  12
   2	  13
   2	  15
   2	  18
   2	  22
   2	  23
   2	  30
   2	  32
   2	  38
   2	  39
   2	  43
   2	  44
   2	  46
   2	  47
   2	  48
   2	  49
   2	  51
   2	  53
   2	  54
   2	  58
   2	  60
   2	  61
   2	  65
   2	  69
   2	  71
   2	  73
   2	  74
   2	  75
   2	  81
   2	  84
   2	  85
   2	  88
   2	  90
   2	  93
   2	  97
   2	  98
   2	 118
   3	   5
   3	   7
   3	   9
   3	  15
   3	  24
   3	  25
   3	  28
   3	  38
   3	  41
   3	  45
   3	  46
   3	  47
   3	  48
   3	  53
   3	  55
   3	  56
   3	  59
   3	  66
   3	  67
   3	  70
   3	  73
   3	  75
   3	  79
   3	  82
   3	  86
   3	  87
   3	  92
   3	  94
   3	  95
   3	 103
   3	 113
   3	 117
   4	   5
   4	   7
   4	  12
   4	  16
   4	  23
   4	  25
   4	  29
   4	  31
   4	  32
   4	  36
   4	  46
   4	  54
   4	  56
   4	  59
   4	  60
   4	  61
   4	  66
   4	  71
   4	  72
   4	  77
   4	  81
   4	  83
   4	  86
   4	  91
   4	  93
   4	  95
   4	  99
   4	 105
   4	 106
   4	 111
   4	 114
   4	 115
   4	 117
   5	  14
   5	  16
   5	  19
   5	  23
   5	  25
   5	  31
   5	  42
   5	  55
   5	  56
   5	  57
   5	  60
   5	  63
   5	  72
   5	  77
   5	  80
   5	  81
   5	  86
   5	  90
   5	 100
   5	 104
   5	 105
   5	 110
   5	 113
   5	 114
   6	  12
   6	  15
   6	  16
   6	  19
   6	  20
   6	  24
   6	  34
   6	  35
   6	  36
   6	  37
   6	  38
   6	  47
   6	  48
   6	  54
   6	  57
   6	  58
   6	  59
   6	  61
   6	  70
   6	  71
   6	  72
   6	  76
   6	  77
   6	  78
   6	  81
   6	  91
   6	  92
   6	  93
   6	  95
   6	  96
   6	  98
   6	  99
   6	 106
   6	 107
   6	 115
   6	 116
   6	 119
   7	   8
   7	  15
   7	  19
   7	  21
   7	  25
   7	  29
   7	  32
   7	  33
   7	  36
   7	  42
   7	  47
   7	  53
   7	  55
   7	  58
   7	  61
   7	  68
   7	  73
   7	  75
   7	  77
   7	  85
   7	  87
   7	  91
   7	  92
   7	  94
   7	  95
   7	  97
   7	  98
   7	 101
   7	 106
   7	 112
   7	 113
   7	 114
   8	  12
   8	  18
   8	  23
   8	  25
   8	  26
   8	  27
   8	  28
   8	  29
   8	  31
   8	  41
   8	  49
   8	  52
   8	  54
   8	  58
   8	  62
   8	  65
   8	  67
   8	  70
   8	  77
   8	  79
   8	  84
   8	  88
   8	  92
   8	  99
   8	 101
   8	 105
   8	 106
   8	 108
   8	 111
   8	 113
   8	 114
   8	 115
   9	  10
   9	  15
   9	  16
   9	  17
   9	  24
   9	  25
   9	  34
   9	  35
   9	  36
   9	  37
   9	  38
   9	  41
   9	  42
   9	  48
   9	  49
   9	  50
   9	  55
   9	  58
   9	  59
   9	  60
   9	  63
   9	  71
   9	  72
   9	  74
   9	  75
   9	  78
   9	  79
   9	  81
   9	  89
   9	  91
   9	  95
   9	 108
   9	 111
   9	 116
  10	  12
  10	  13
  10	  16
  10	  18
  10	  20
  10	  27
  10	  28
  10	  29
  10	  41
  10	  52
  10	  54
  10	  55
  10	  58
  10	  60
  10	  61
  10	  66
  10	  69
  10	  70
  10	  71
  10	  72
  10	  77
  10	  78
  10	  79
  10	  81
  10	  82
  10	  83
  10	  84
  10	  85
  10	  88
  10	  97
  10	 103
  10	 115
  10	 116
  10	 118
  11	  12
  11	  16
  11	  17
  11	  20
  11	  25
  11	  31
  11	  34
  11	  36
  11	  37
  11	  38
  11	  41
  11	  42
  11	  44
  11	  45
  11	  47
  11	  48
  11	  58
  11	  62
  11	  70
  11	  71
  11	  72
  11	  73
  11	  74
  11	  76
  11	  81
  11	  82
  11	  83
  11	  87
  11	  92
  11	 100
  11	 101
  11	 104
  11	 106
  11	 108
  11	 109
  11	 111
  11	 114
  12	  13
  12	  18
  12	  19
  12	  22
  12	  28
  12	  30
  12	  31
  12	  32
  12	  33
  12	  36
  12	  46
  12	  53
  12	  62
  12	  65
  12	  68
  12	  75
  12	  76
  12	  77
  12	  78
  12	  86
  12	  88
  12	  89
  12	  91
  12	  93
  12	  96
  12	 101
  12	 104
  12	 113
  12	 115
  13	  16
  13	  17
  13	  21
  13	  23
  13	  24
  13	  30
  13	  36
  13	  39
  13	  41
  13	  45
  13	  49
  13	  50
  13	  51
  13	  52
  13	  53
  13	  56
  13	  58
  13	  59
  13	  63
  13	  67
  13	  68
  13	  81
  13	  88
  13	  89
  13	  92
  13	  93
  13	  94
  13	  96
  13	  99
  13	 102
  13	 111
  13	 116
  13	 118
  14	  16
  14	  20
  14	  26
  14	  27
  14	  29
  14	  31
  14	  36
  14	  38
  14	  40
  14	  41
  14	  42
  14	  43
  14	  45
  14	  53
  14	  54
  14	  56
  14	  62
  14	  68
  14	  71
  14	  72
  14	  76
  14	  77
  14	  78
  14	  81
  14	  83
  14	  84
  14	  85
  14	  88
  14	 104
  14	 108
  14	 112
  14	 113
  14	 116
  14	 117
  14	 119
  15	  19
  15	  26
  15	  29
  15	  30
  15	  37
  15	  45
  15	  54
  15	  55
  15	  59
  15	  70
  15	  71
  15	  74
  15	  83
  15	  89
  15	  90
  15	 101
  15	 103
  15	 105
  15	 117
  15	 119
  16	  17
  16	  18
  16	  19
  16	  22
  16	  25
  16	  26
  16	  27
  16	  31
  16	  33
  16	  36
  16	  47
  16	  48
  16	  51
  16	  58
  16	  67
  16	  74
  16	  77
  16	  78
  16	  81
  16	  87
  16	  89
  16	  92
  16	  97
  16	 102
  16	 104
  16	 109
  16	 113
  17	  21
  17	  31
  17	  32
  17	  36
  17	  38
  17	  39
  17	  40
  17	  41
  17	  51
  17	  59
  17	  60
  17	  61
  17	  62
  17	  63
  17	  65
  17	  67
  17	  69
  17	  70
  17	  77
  17	  79
  17	  86
  17	  89
  17	  99
  17	 102
  17	 103
  17	 107
  17	 109
  17	 110
  17	 116
  18	  19
  18	  21
  18	  22
  18	  26
  18	  28
  18	  30
  18	  32
  18	  33
  18	  41
  18	  45
  18	  47
  18	  55
  18	  61
  18	  62
  18	  66
  18	  67
  18	  68
  18	  69
  18	  70
  18	  76
  18	  80
  18	  82
  18	  83
  18	  89
  18	 101
  18	 108
  18	 109
  18	 110
  18	 113
  19	  25
  19	  26
  19	  27
  19	  28
  19	  30
  19	  32
  19	  37
  19	  41
  19	  44
  19	  45
  19	  47
  19	  50
  19	  53
  19	  60
  19	  62
  19	  65
  19	  67
  19	  79
  19	  82
  19	  84
  19	  88
  19	  90
  19	  96
  19	 103
  19	 105
  19	 106
  19	 108
  19	 109
  20	  24
  20	  25
  20	  26
  20	  33
  20	  35
  20	  44
  20	  53
  20	  54
  20	  70
  20	  75
  20	  76
  20	  77
  20	  78
  20	  79
  20	  80
  20	  89
  20	  90
  20	  93
  20	  98
  20	 103
  20	 106
  20	 108
  20	 114
  20	 118
  21	  22
  21	  25
  21	  26
  21	  27
  21	  30
  21	  32
  21	  35
  21	  36
  21	  42
  21	  46
  21	  47
  21	  48
  21	  53
  21	  57
  21	  59
  21	  60
  21	  62
  21	  63
  21	  64
  21	  67
  21	  72
  21	  74
  21	  75
  21	  77
  21	  81
  21	  95
  21	  96
  21	  97
  21	 100
  21	 102
  21	 106
  21	 108
  21	 110
  21	 113
  21	 116
  21	 118
  22	  23
  22	  24
  22	  25
  22	  28
  22	  30
  22	  33
  22	  38
  22	  39
  22	  41
  22	  47
  22	  48
  22	  51
  22	  53
  22	  54
  22	  56
  22	  60
  22	  62
  22	  67
  22	  71
  22	  74
  22	  90
  22	  93
  22	  95
  22	  96
  22	  99
  22	 101
  22	 102
  22	 103
  22	 107
  22	 108
  22	 110
  22	 111
  22	 113
  22	 114
  22	 116
  23	  24
  23	  31
  23	  32
  23	  36
  23	  41
  23	  45
  23	  46
  23	  54
  23	  57
  23	  64
  23	  65
  23	  67
  23	  74
  23	  78
  23	  79
  23	  81
  23	  83
  23	  87
  23	  89
  23	  92
  23	 103
  23	 104
  23	 105
  23	 107
  23	 111
  23	 113
  24	  31
  24	  33
  24	  34
  24	  36
  24	  37
  24	  38
  24	  40
  24	  43
  24	  44
  24	  48
  24	  50
  24	  59
  24	  63
  24	  65
  24	  70
  24	  79
  24	  93
  24	  94
  24	  97
  24	  99
  24	 100
  24	 102
  24	 106
  24	 109
  24	 112
  24	 114
  24	 116
  24	 118
  24	 119
  25	  35
  25	  36
  25	  39
  25	  42
  25	  46
  25	  54
  25	  58
  25	  60
  25	  67
  25	  71
  25	  74
  25	  76
  25	  78
  25	  80
  25	  82
  25	  86
  25	  88
  25	  89
  25	  94
  25	  95
  25	  96
  25	  97
  25	  98
  25	 101
  25	 104
  25	 109
  25	 110
  25	 111
  25	 113
  25	 115
  25	 116
  25	 117
  26	  31
  26	  38
  26	  43
  26	  45
  26	  46
  26	  47
  26	  48
  26	  50
  26	  51
  26	  54
  26	  56
  26	  58
  26	  59
  26	  62
  26	  64
  26	  66
  26	  73
  26	  77
  26	  78
  26	  87
  26	  90
  26	  93
  26	  97
  26	 101
  26	 104
  26	 107
  26	 109
  26	 111
  26	 115
  26	 116
  26	 119
  27	  30
  27	  37
  27	  38
  27	  41
  27	  45
  27	  46
  27	  49
  27	  53
  27	  60
  27	  61
  27	  63
  27	  65
  27	  67
  27	  70
  27	  71
  27	  72
  27	  74
  27	  75
  27	  78
  27	  90
  27	  97
  27	  99
  27	 100
  27	 102
  27	 104
  27	 106
  27	 109
  27	 110
  27	 112
  27	 114
  27	 115
  27	 116
  27	 118
  28	  29
  28	  31
  28	  39
  28	  42
  28	  44
  28	  51
  28	  52
  28	  63
  28	  70
  28	  72
  28	  76
  28	  79
  28	  87
  28	  89
  28	  99
  28	 104
  28	 109
  28	 110
  28	 113
  28	 118
  28	 119
  29	  34
  29	  36
  29	  38
  29	  39
  29	  42
  29	  43
  29	  50
  29	  52
  29	  54
  29	  56
  29	  60
  29	  67
  29	  69
  29	  74
  29	  75
  29	  77
  29	  78
  29	  79
  29	  81
  29	  82
  29	  83
  29	  86
  29	  87
  29	  90
  29	  91
  29	  94
  29	  95
  29	  98
  29	 103
  29	 108
  29	 115
  29	 118
  30	  32
  30	  34
  30	  39
  30	  44
  30	  48
  30	  52
  30	  53
  30	  55
  30	  56
  30	  57
  30	  61
  30	  63
  30	  68
  30	  69
  30	  71
  30	  79
  30	  81
  30	  82
  30	  83
  30	  86
  30	  87
  30	  92
  30	  93
  30	  94
  30	  97
  30	  99
  30	 102
  30	 108
  30	 109
  30	 116
  30	 119
  31	  32
  31	  36
  31	  39
  31	  42
  31	  45
  31	  49
  31	  56
  31	  57
  31	  59
  31	  62
  31	  63
  31	  64
  31	  73
  31	  74
  31	  75
  31	  76
  31	  78
  31	  84
  31	  89
  31	  90
  31	 102
  31	 103
  31	 104
  31	 105
  31	 106
  31	 108
  31	 109
  31	 114
  31	 115
  31	 118
  32	  36
  32	  40
  32	  41
  32	  42
  32	  50
  32	  51
  32	  53
  32	  55
  32	  58
  32	  60
  32	  65
  32	  66
  32	  67
  32	  68
  32	  75
  32	  78
  32	  79
  32	  83
  32	  91
  32	  95
  32	  96
  32	 104
  32	 105
  32	 106
  32	 108
  32	 112
  32	 113
  32	 115
  32	 117
  33	  34
  33	  43
  33	  47
  33	  55
  33	  56
  33	  61
  33	  62
  33	  65
  33	  75
  33	  94
  33	  95
  33	  96
  33	  98
  33	  99
  33	 102
  33	 103
  33	 106
  33	 107
  33	 108
  33	 109
  33	 119
  34	  35
  34	  39
  34	  44
  34	  49
  34	  50
  34	  58
  34	  60
  34	  66
  34	  71
  34	  74
  34	  75
  34	  76
  34	  88
  34	  90
  34	  94
  34	 100
  34	 102
  34	 105
  34	 106
  34	 111
  34	 117
  35	  39
  35	  41
  35	  42
  35	  44
  35	  47
  35	  52
  35	  54
  35	  57
  35	  62
  35	  65
  35	  66
  35	  67
  35	  69
  35	  76
  35	  77
  35	  78
  35	  80
  35	  82
  35	  91
  35	  93
  35	  98
  35	  99
  35	 100
  35	 102
  35	 111
  35	 113
  36	  42
  36	  44
  36	  47
  36	  48
  36	  49
  36	  52
  36	  56
  36	  60
  36	  64
  36	  66
  36	  67
  36	  70
  36	  71
  36	  72
  36	  79
  36	  83
  36	  89
  36	  91
  36	  95
  36	 100
  36	 107
  36	 108
  36	 117
  36	 118
  37	  39
  37	  41
  37	  42
  37	  54
  37	  55
  37	  60
  37	  64
  37	  66
  37	  69
  37	  72
  37	  80
  37	  84
  37	  86
  37	  87
  37	  90
  37	  91
  37	  92
  37	  94
  37	  95
  37	  96
  37	 101
  37	 106
  37	 107
  37	 110
  37	 111
  37	 112
  37	 114
  37	 118
  38	  40
  38	  41
  38	  42
  38	  45
  38	  49
  38	  52
  38	  53
  38	  57
  38	  64
  38	  65
  38	  72
  38	  79
  38	  82
  38	  87
  38	  90
  38	  98
  38	 100
  38	 109
  39	  40
  39	  42
  39	  48
  39	  51
  39	  54
  39	  56
  39	  58
  39	  60
  39	  61
  39	  63
  39	  65
  39	  67
  39	  70
  39	  80
  39	  82
  39	  84
  39	  86
  39	  91
  39	  93
  39	  95
  39	  96
  39	  99
  39	 100
  39	 101
  39	 104
  39	 106
  39	 110
  39	 119
  40	  44
  40	  47
  40	  50
  40	  52
  40	  55
  40	  56
  40	  60
  40	  65
  40	  66
  40	  74
  40	  84
  40	  88
  40	  89
  40	  90
  40	  91
  40	  92
  40	  94
  40	  95
  40	  97
  40	 107
  40	 110
  40	 112
  40	 114
  40	 116
  40	 119
  41	  43
  41	  47
  41	  54
  41	  56
  41	  58
  41	  60
  41	  61
  41	  67
  41	  68
  41	  73
  41	  79
  41	  80
  41	  82
  41	  90
  41	  91
  41	  93
  41	  99
  41	 102
  41	 104
  41	 105
  41	 107
  41	 110
  41	 111
  41	 115
  41	 117
  41	 118
  41	 119
  42	  43
  42	  48
  42	  56
  42	  57
  42	  60
  42	  61
  42	  72
  42	  73
  42	  75
  42	  81
  42	  84
  42	  85
  42	  86
  42	  87
  42	  94
  42	  96
  42	  97
  42	  99
  42	 109
  43	  47
  43	  50
  43	  53
  43	  59
  43	  60
  43	  64
  43	  65
  43	  69
  43	  70
  43	  76
  43	  79
  43	  82
  43	  84
  43	  85
  43	  87
  43	  89
  43	  90
  43	  96
  43	  97
  43	  98
  43	 100
  43	 103
  43	 104
  43	 108
  43	 110
  43	 112
  43	 114
  43	 117
  44	  46
  44	  49
  44	  52
  44	  53
  44	  58
  44	  59
  44	  60
  44	  61
  44	  64
  44	  66
  44	  68
  44	  70
  44	  73
  44	  74
  44	  75
  44	  80
  44	  84
  44	  88
  44	  89
  44	  92
  44	  94
  44	  95
  44	 106
  44	 108
  44	 112
  44	 114
  44	 117
  45	  52
  45	  53
  45	  55
  45	  60
  45	  62
  45	  67
  45	  70
  45	  75
  45	  80
  45	  83
  45	  86
  45	  87
  45	  89
  45	  90
  45	  92
  45	  93
  45	  95
  45	  97
  45	 104
  46	  48
  46	  54
  46	  56
  46	  57
  46	  58
  46	  60
  46	  66
  46	  70
  46	  75
  46	  79
  46	  82
  46	  83
  46	  84
  46	  85
  46	  88
  46	  90
  46	  91
  46	  92
  46	  96
  46	  97
  46	 101
  46	 102
  46	 104
  46	 114
  46	 119
  47	  57
  47	  61
  47	  64
  47	  67
  47	  68
  47	  69
  47	  71
  47	  72
  47	  75
  47	  83
  47	  91
  47	  94
  47	  96
  47	 100
  47	 101
  47	 104
  47	 105
  47	 108
  47	 109
  47	 119
  48	  49
  48	  51
  48	  54
  48	  55
  48	  56
  48	  57
  48	  61
  48	  67
  48	  68
  48	  73
  48	  74
  48	  75
  48	  78
  48	  80
  48	  81
  48	  83
  48	  88
  48	  93
  48	  94
  48	 106
  48	 107
  48	 110
  48	 114
  48	 118
  48	 119
  49	  52
  49	  64
  49	  67
  49	  74
  49	  80
  49	  84
  49	  85
  49	  91
  49	  92
  49	  94
  49	  96
  49	 110
  49	 112
  49	 113
  49	 117
  49	 118
  49	 119
  50	  51
  50	  52
  50	  54
  50	  58
  50	  60
  50	  61
  50	  66
  50	  67
  50	  68
  50	  69
  50	  74
  50	  79
  50	  90
  50	  91
  50	  94
  50	 100
  50	 101
  50	 108
  50	 109
  50	 115
  51	  54
  51	  56
  51	  57
  51	  67
  51	  70
  51	  71
  51	  73
  51	  74
  51	  78
  51	  79
  51	  81
  51	  86
  51	  88
  51	  90
  51	  93
  51	  94
  51	  95
  51	 100
  51	 102
  51	 106
  51	 108
  51	 110
  51	 118
  52	  56
  52	  58
  52	  59
  52	  61
  52	  67
  52	  69
  52	  70
  52	  75
  52	  77
  52	  87
  52	  90
  52	  95
  52	  98
  52	 103
  52	 105
  52	 107
  52	 109
  52	 111
  52	 118
  53	  54
  53	  58
  53	  60
  53	  71
  53	  74
  53	  79
  53	  80
  53	  81
  53	  91
  53	  92
  53	 114
  53	 117
  54	  58
  54	  59
  54	  63
  54	  65
  54	  66
  54	  70
  54	  71
  54	  75
  54	  77
  54	  82
  54	  86
  54	  90
  54	  91
  54	  93
  54	  96
  54	  97
  54	 111
  54	 112
  54	 118
  55	  57
  55	  62
  55	  65
  55	  67
  55	  68
  55	  72
  55	  76
  55	  77
  55	  78
  55	  79
  55	  82
  55	  83
  55	  87
  55	  89
  55	  98
  55	 100
  55	 102
  55	 107
  55	 113
  55	 118
  56	  57
  56	  58
  56	  69
  56	  74
  56	  83
  56	  86
  56	  92
  56	 100
  56	 101
  56	 102
  56	 104
  56	 106
  56	 110
  56	 115
  57	  61
  57	  64
  57	  66
  57	  69
  57	  70
  57	  71
  57	  79
  57	  83
  57	  85
  57	  87
  57	  89
  57	  93
  57	 101
  57	 109
  57	 110
  57	 113
  57	 114
  57	 118
  58	  61
  58	  62
  58	  69
  58	  73
  58	  75
  58	  76
  58	  79
  58	  83
  58	  87
  58	  97
  58	  99
  58	 105
  58	 107
  58	 108
  58	 112
  58	 113
  58	 115
  58	 119
  59	  63
  59	  65
  59	  68
  59	  70
  59	  75
  59	  78
  59	  86
  59	  87
  59	  89
  59	  93
  59	  96
  59	  98
  59	  99
  59	 101
  59	 103
  59	 107
  59	 108
  59	 109
  59	 117
  60	  61
  60	  64
  60	  65
  60	  68
  60	  70
  60	  72
  60	  75
  60	  79
  60	  93
  60	  95
  60	  96
  60	  98
  60	  99
  60	 100
  60	 105
  61	  62
  61	  68
  61	  73
  61	  76
  61	  79
  61	  81
  61	  84
  61	  86
  61	  91
  61	  92
  61	  93
  61	  94
  61	  96
  61	  98
  61	 100
  61	 102
  61	 106
  61	 107
  61	 109
  61	 113
  61	 114
  62	  63
  62	  65
  62	  71
  62	  75
  62	  80
  62	  82
  62	  83
  62	  89
  62	  94
  62	  97
  62	 103
  62	 105
  62	 113
  62	 115
  62	 116
  62	 118
  63	  64
  63	  66
  63	  68
  63	  70
  63	  71
  63	  72
  63	  73
  63	  82
  63	  84
  63	  85
  63	  95
  63	  96
  63	 104
  63	 112
  63	 113
  63	 115
  63	 117
  64	  66
  64	  73
  64	  74
  64	  75
  64	  82
  64	  83
  64	  87
  64	  89
  64	  92
  64	  94
  64	  97
  64	 103
  64	 106
  64	 110
  64	 118
  65	  68
  65	  74
  65	  75
  65	  82
  65	  85
  65	  86
  65	  88
  65	  89
  65	  92
  65	  97
  65	 100
  65	 102
  65	 108
  65	 109
  65	 110
  65	 113
  65	 114
  66	  74
  66	  79
  66	  82
  66	  87
  66	  89
  66	  96
  66	  98
  66	  99
  66	 102
  66	 103
  66	 104
  66	 110
  66	 114
  67	  69
  67	  70
  67	  76
  67	  77
  67	  82
  67	  86
  67	  94
  67	  99
  67	 101
  67	 104
  67	 106
  67	 114
  67	 117
  68	  69
  68	  70
  68	  73
  68	  74
  68	  76
  68	  78
  68	  84
  68	  87
  68	  88
  68	  91
  68	  94
  68	 101
  68	 102
  68	 103
  68	 104
  68	 105
  68	 107
  68	 109
  68	 111
  68	 113
  68	 117
  69	  75
  69	  79
  69	  80
  69	  81
  69	  87
  69	  96
  69	 105
  69	 107
  69	 108
  69	 110
  69	 113
  69	 114
  69	 117
  69	 118
  69	 119
  70	  71
  70	  73
  70	  75
  70	  80
  70	  81
  70	  84
  70	  89
  70	  94
  70	  95
  70	 108
  70	 119
  71	  73
  71	  76
  71	  78
  71	  79
  71	  80
  71	  82
  71	  84
  71	  89
  71	  92
  71	  94
  71	  98
  71	 103
  71	 109
  71	 110
  71	 112
  71	 114
  71	 119
  72	  73
  72	  76
  72	  79
  72	  81
  72	  85
  72	  86
  72	  89
  72	  91
  72	  94
  72	  95
  72	  96
  72	 100
  72	 104
  72	 105
  72	 106
  72	 110
  72	 111
  72	 114
  72	 115
  72	 119
  73	  85
  73	  88
  73	  89
  73	  90
  73	  93
  73	  95
  73	  97
  73	 100
  73	 104
  73	 107
  73	 114
  74	  75
  74	  76
  74	  77
  74	  78
  74	  81
  74	  82
  74	  83
  74	  85
  74	  88
  74	  89
  74	  91
  74	  93
  74	  94
  74	  96
  74	 101
  74	 102
  74	 103
  74	 110
  74	 113
  74	 119
  75	  82
  75	  84
  75	  85
  75	  86
  75	  95
  75	  98
  75	  99
  75	 102
  75	 103
  75	 106
  75	 117
  75	 118
  76	  83
  76	  90
  76	  91
  76	  97
  76	  98
  76	 100
  76	 101
  76	 112
  76	 114
  76	 116
  77	  80
  77	  81
  77	  83
  77	  88
  77	  89
  77	  90
  77	  91
  77	  93
  77	  95
  77	 100
  77	 101
  77	 103
  77	 110
  77	 114
  77	 115
  77	 118
  78	  82
  78	  83
  78	  86
  78	  90
  78	  96
  78	  98
  78	 101
  78	 108
  78	 109
  78	 113
  78	 114
  79	  80
  79	  83
  79	  88
  79	  90
  79	  96
  79	  97
  79	  98
  79	 100
  79	 105
  79	 118
  79	 119
  80	  84
  80	  85
  80	  87
  80	  89
  80	  90
  80	  93
  80	  94
  80	  95
  80	  97
  80	  98
  80	 101
  80	 104
  80	 106
  80	 107
  80	 108
  80	 110
  80	 111
  80	 112
  80	 117
  81	  82
  81	  83
  81	  90
  81	  91
  81	  94
  81	  98
  81	  99
  81	 102
  81	 104
  81	 105
  81	 108
  81	 114
  82	  84
  82	  91
  82	  92
  82	  93
  82	  94
  82	  97
  82	 103
  82	 104
  82	 110
  82	 114
  82	 115
  83	  88
  83	  93
  83	  95
  83	  98
  83	  99
  83	 100
  83	 103
  83	 104
  83	 108
  83	 109
  83	 110
  83	 111
  83	 112
  83	 114
  83	 116
  84	  88
  84	  99
  84	 110
  84	 114
  85	  86
  85	  89
  85	  94
  85	  95
  85	  96
  85	  97
  85	  98
  85	 100
  85	 106
  86	  90
  86	  91
  86	  92
  86	  97
  86	  99
  86	 105
  86	 106
  86	 107
  86	 109
  86	 112
  86	 114
  86	 115
  86	 116
  86	 119
  87	  91
  87	  94
  87	  96
  87	  99
  87	 105
  87	 106
  87	 108
  87	 110
  87	 115
  88	  89
  88	  90
  88	  93
  88	  94
  88	  97
  88	  98
  88	 108
  88	 110
  88	 117
  89	  93
  89	  94
  89	  95
  89	  97
  89	 102
  89	 104
  89	 108
  89	 109
  89	 114
  89	 117
  90	  91
  90	  98
  90	 107
  90	 110
  90	 111
  90	 112
  90	 113
  90	 114
  90	 115
  90	 116
  90	 117
  91	 104
  91	 110
  91	 112
  91	 114
  91	 118
  91	 119
  92	  93
  92	  94
  92	  95
  92	  99
  92	 103
  92	 105
  92	 106
  92	 116
  93	  94
  93	  95
  93	  96
  93	  98
  93	 109
  94	  96
  94	 103
  94	 104
  94	 106
  94	 113
  94	 115
  94	 116
  95	  98
  95	 100
  95	 101
  95	 102
  95	 104
  95	 105
  95	 106
  95	 108
  95	 109
  95	 113
  95	 114
  96	 101
  96	 102
  96	 106
  96	 110
  96	 116
  97	 108
  97	 109
  97	 110
  97	 115
  97	 116
  97	 118
  98	  99
  98	 100
  98	 102
  98	 103
  98	 108
  98	 110
  98	 115
  99	 100
  99	 102
  99	 105
  99	 106
  99	 107
  99	 108
  99	 113
  99	 114
  99	 116
  99	 117
  99	 119
 100	 101
 100	 102
 100	 103
 100	 106
 100	 109
 100	 112
 100	 114
 100	 116
 101	 102
 101	 103
 101	 104
 101	 105
 101	 108
 101	 111
 101	 116
 101	 117
 101	 118
 101	 119
 102	 104
 102	 110
 102	 112
 102	 114
 102	 115
 102	 118
 102	 119
 103	 105
 103	 107
 103	 110
 103	 111
 103	 113
 103	 119
 104	 106
 104	 107
 104	 109
 104	 111
 104	 113
 104	 114
 105	 109
 105	 112
 105	 115
 105	 116
 106	 111
 106	 115
 106	 119
 107	 110
 107	 113
 107	 118
 108	 109
 108	 110
 108	 118
 108	 119
 109	 110
 109	 113
 109	 116
 109	 117
 109	 118
 110	 113
 110	 114
 110	 115
 110	 118
 111	 113
 112	 118
 112	 119
 113	 114
 114	 118
 115	 117
 116	 117
 116	 118
 117	 119
 118	 119
;
